94 97 99 100 552 553 554 556 557 41 40 39 42 43 44 45 555 46 47 48 49 54 53 55 56 57 58 59 60 61 63 64 62 79 80 81 82 83 84 51 52 50 85 86 87 90 92 91 93 89 88 78 77 76 75 74 73 72 65 66 67 68 69 70 71 123 122 120 119 118 121 117 106 105 104 103 547 546 545 544 543 541 542 107 115 116 128 127 126 125 124 138 137 129 130 132 133 134 135 136 139 140 141 151 150 149 152 148 147 146 142 143 144 145 158 157 153 156 159 155 154 160 161 113 131 114 112 111 110 109 108 173 174 172 170 171 169 168 162 163 167 166 164 165 203 204 202 201 200 199 198 205 206 207 208 209 210 211 212 213 214 215 216 217 223 224 222 221 220 218 219 193 194 195 196 197 184 183 185 186 188 187 182 179 181 180 178 177 175 176 540 538 539 537 536 535 487 534 488 489 530 531 532 533 231 230 229 228 227 189 190 192 191 226 225 232 233 234 235 236 237 240 239 238 246 247 245 244 243 242 241 248 249 250 251 252 254 253 255 256 257 300 299 258 259 260 261 262 263 264 265 266 298 297 321 320 319 317 318 306 305 313 312 311 310 309 308 307 304 303 301 302 508 507 506 505 504 503 502 498 497 496 470 469 468 467 466 465 464 463 462 461 460 459 458 457 456 455 453 452 499 500 501 451 450 441 440 442 446 449 448 447 381 390 389 388 387 386 382 385 383 384 409 405 408 407 406 404 400 399 397 398 372 371 396 395 394 393 391 392 380 378 379 376 377 314 316 315 375 374 373 322 323 324 325 326 327 328 329 366 367 370 369 368 365 342 330 331 332 291 295 296 294 293 270 269 268 267 271 272 273 274 275 292 290 289 288 276 277 278 279 282 281 280 287 286 285 284 283 334 335 336 337 338 339 333 340 341 343 344 345 346 364 363 362 347 348 349 350 351 415 416 414 413 352 353 354 355 357 358 359 361 360 401 403 402 356 412 411 410 418 417 419 420 421 422 423 424 425 426 427 428 429 430 432 431 445 444 443 439 454 438 436 435 434 433 437 3 2 1 4 0 5 573 572 571 570 569 568 20 19 18 17 8 7 6 9 10 11 16 15 14 13 12 23 22 21 24 25 26 27 28 29 31 30 32 36 37 38 35 33 34 558 559 560 561 562 563 564 565 566 567 474 473 472 471 495 494 524 525 492 491 526 523 522 521 520 518 519 517 514 515 516 509 510 511 513 512 527 528 529 490 493 486 485 484 483 481 482 475 476 480 479 477 478 548 549 550 551 101 102 98 96 95